log/Reading instance from file data/g03.dat
Number of nodes: 51
Number of edges: 176
initialize CPLEX ... done.
Calling CPLEX solve ...
Version identifier: 12.10.0.0 | 2019-11-26 | 843d4de
CPXPARAM_Threads                                 1
CPXPARAM_TimeLimit                               3600
CPXPARAM_WorkMem                                 8192
Tried aggregator 2 times.
MIP Presolve eliminated 61 rows and 70 columns.
MIP Presolve modified 428 coefficients.
Aggregator did 40 substitutions.
Reduced MIP has 405 rows, 644 columns, and 2134 nonzeros.
Reduced MIP has 342 binaries, 302 generals, 0 SOSs, and 0 indicators.
Presolve time = 0.00 sec. (2.82 ticks)
Probing fixed 0 vars, tightened 60 bounds.
Probing time = 0.00 sec. (1.33 ticks)
Tried aggregator 1 time.
Detecting symmetries...
Reduced MIP has 405 rows, 644 columns, and 2134 nonzeros.
Reduced MIP has 342 binaries, 302 generals, 0 SOSs, and 0 indicators.
Presolve time = 0.00 sec. (1.37 ticks)
Probing time = 0.00 sec. (0.97 ticks)
Cover probing fixed 0 vars, tightened 50 bounds.
Clique table members: 303.
MIP emphasis: balance optimality and feasibility.
MIP search method: dynamic search.
Parallel mode: none, using 1 thread.
Root relaxation solution time = 0.00 sec. (1.70 ticks)

        Nodes                                         Cuts/
   Node  Left     Objective  IInf  Best Integer    Best Bound    ItCnt     Gap

      0     0      247.5000    20                    247.5000       98         
      0     0      265.3261    20                    Cuts: 55      174         
      0     0      362.9486    20                    Cuts: 24      249         
      0     0      379.6690    20                    Cuts: 24      323         
      0     0      382.6151    20                    Cuts: 24      364         
      0     0      401.0904    20                    Cuts: 15      410         
Detecting symmetries...
      0     0      448.3848    20                    Cuts: 26      488         
      0     0      494.3158    20                    Cuts: 46      629         
      0     0      524.5533    20                    Cuts: 14      693         
      0     0      538.1606    20                    Cuts: 19      721         
      0     0      543.1629    20                    Cuts: 10      764         
      0     0      547.0886    20                    Cuts: 16      786         
      0     0      557.5740    20                    Cuts: 14      801         
      0     0      564.7105    20                    Cuts: 21      828         
      0     0      575.6827    20                    Cuts: 12      869         
      0     0      580.4644    20                    Cuts: 16      891         
      0     0      594.7901    20                    Cuts: 19      922         
      0     0      606.0655    20                    Cuts: 18      970         
      0     0      636.5026    20                    Cuts: 22     1027         
      0     0      649.3789    20                    Cuts: 19     1127         
      0     0      675.4391    20                    Cuts: 21     1188         
      0     0      678.5581    20                    Cuts: 12     1235         
      0     0      683.3518    20                    Cuts: 18     1277         
      0     0      691.0080    20                    Cuts: 21     1335         
      0     0      693.2232    20                    Cuts: 19     1373         
      0     0      694.3726    20                     Cuts: 9     1395         
      0     0      708.1685    20                    Cuts: 11     1459         
      0     0      717.1163    20                    Cuts: 27     1545         
      0     0      722.0400    20                    Cuts: 15     1580         
      0     0      723.7287    20                    Cuts: 11     1633         
      0     0      724.8815    20                    Cuts: 24     1681         
*     0     0      integral     0      725.0000      Cuts: 13     1687    0.00%
      0     0        cutoff            725.0000      725.0000     1687    0.00%
Elapsed time = 0.59 sec. (607.42 ticks, tree = 0.01 MB, solutions = 1)

Cover cuts applied:  14
Implied bound cuts applied:  10
Flow cuts applied:  53
Mixed integer rounding cuts applied:  20
Zero-half cuts applied:  14
Lift and project cuts applied:  3

Root node processing (before b&c):
  Real time             =    0.59 sec. (607.46 ticks)
Sequential b&c:
  Real time             =    0.00 sec. (0.00 ticks)
                          ------------
Total (root+branch&cut) =    0.59 sec. (607.46 ticks)
SOLUTION:

x(0,21)[0..1]  = 1
x(8,17)[0..1]  = 1
x(16,23)[0..1]  = 1
x(16,31)[0..1]  = 1
x(17,24)[0..1]  = 1
x(24,33)[0..1]  = 1
x(18,8)[0..1]  = 1
x(21,16)[0..1]  = 1
x(31,18)[0..1]  = 1
x(31,22)[0..1]  = 1
z(8)[0..1]  = 1
z(16)[0..1]  = 1
z(17)[0..1]  = 1
z(18)[0..1]  = 1
z(21)[0..1]  = 1
z(22)[0..1]  = 1
z(23)[0..1]  = 1
z(24)[0..1]  = 1
z(31)[0..1]  = 1
z(33)[0..1]  = 1


CPLEX finished.

CPLEX status: Optimal
Branch-and-Bound nodes: 0
Objective value: 725
CPU time: 0.58

